open_stacks/wbp_15_15_1.dzn
c = 15;
p = 15;
orders = [|
0, 0, 0, 0, 0, 0, 1, 0, 0, 0, 0, 0, 0, 0, 1 |
1, 1, 0, 0, 0, 0, 0, 0, 0, 0, 0, 0, 0, 0, 0 |
1, 0, 0, 0, 0, 0, 0, 0, 0, 0, 1, 0, 0, 0, 0 |
0, 0, 0, 1, 0, 0, 0, 1, 0, 0, 0, 0, 0, 0, 0 |
0, 0, 0, 0, 0, 1, 0, 0, 0, 0, 1, 0, 0, 0, 0 |
0, 0, 0, 0, 0, 1, 0, 0, 1, 0, 0, 0, 0, 0, 0 |
0, 1, 0, 0, 0, 0, 0, 0, 0, 0, 1, 0, 0, 0, 0 |
0, 0, 0, 0, 0, 0, 0, 1, 0, 0, 0, 0, 1, 0, 0 |
0, 0, 0, 1, 0, 0, 0, 0, 0, 0, 0, 0, 1, 0, 0 |
0, 0, 0, 0, 0, 0, 0, 1, 1, 0, 0, 0, 0, 0, 0 |
0, 1, 0, 0, 0, 0, 0, 0, 0, 0, 0, 0, 0, 0, 1 |
0, 0, 0, 0, 0, 0, 1, 0, 0, 1, 0, 0, 0, 0, 0 |
0, 0, 0, 0, 0, 0, 0, 1, 0, 0, 0, 0, 0, 1, 0 |
0, 0, 1, 0, 0, 0, 0, 0, 0, 0, 1, 0, 0, 0, 0 |
0, 0, 0, 0, 1, 0, 0, 0, 0, 0, 0, 1, 0, 0, 0 |];
