open_stacks/wbp_15_15_1.sol
objective = 4;
s = [3, 5, 12, 10, 7, 15, 2, 1, 11, 6, 9, 14, 8, 4, 13];
